102 57 110 192 21 184 172 152 69 48 169 97 138 139 16 89 88 10 167 109 22 41 120 189 100 194 197 73 111 60 170 126 75 79 193 156 133 68 157 183 106 151 15 62 153 53 90 76 42 70 187 121 122 3 43 92 59 52 123 117 4 176 2 82 39 5 58 149 63 84 17 113 24 19 141 8 101 54 112 25 86 162 130 147 94 55 20 181 163 132 46 114 11 27 150 9 177 116 91 140 47 1 99 191 50 118 36 195 18 135 144 61 34 29 143 115 154 38 72 14 136 171 83 40 164 23 26 87 178 12 78 180 146 0 49 168 125 199 155 161 31 104 96 166 93 174 129 80 33 148 185 37 65 7 51 137 119 179 45 145 124 108 160 134 71 56 30 98 77 173 64 159 85 95 142 188 186 13 67 32 165 44 103 182 81 105 6 131 66 74 158 35 128 107 198 196 175 190 28 127